NAME : cgl_57.7999.tour
COMMENT : Length = 7999
COMMENT : Found by LKH-3 [Keld Helsgaun] Thu Jun 26 21:26:49 2025
TYPE : TOUR
DIMENSION : 58
TOUR_SECTION
7
6
11
8
12
10
9
14
13
15
16
17
19
18
34
57
55
56
58
43
46
48
50
45
51
49
47
44
52
39
38
41
42
40
37
53
54
36
35
21
25
20
23
22
24
26
33
32
27
29
30
28
31
2
4
3
1
5
-1
EOF
